\ File written by Highs .lp filereader
minimize
 obj: +1 x1 +1 x2 +1 x3 +1 x4 +1 x5 +1 x6 +1 x7 +1 x8 +1 x9 +0 x10 +0 x11 +0 x12 +0 x13 +0 x14 +0 x15 +0 x16 +0 x17 
st
 con1: +1 x1 +1 x2 +1 x3 +1 x4 +1 x7 = +1
 con2: +1 x1 +1 x2 +1 x3 +1 x5 +1 x8 = +1
 con3: +1 x1 +1 x2 +1 x3 +1 x6 +1 x9 = +1
 con4: +1 x1 +1 x4 +1 x5 +1 x6 +1 x7 = +1
 con5: +1 x2 +1 x4 +1 x5 +1 x6 +1 x8 = +1
 con6: +1 x3 +1 x4 +1 x5 +1 x6 +1 x9 = +1
 con7: +1 x1 +1 x4 +1 x7 +1 x8 +1 x9 = +1
 con8: +1 x2 +1 x5 +1 x7 +1 x8 +1 x9 = +1
 con9: +1 x3 +1 x6 +1 x7 +1 x8 +1 x9 = +1
 con10: +1 x1 -1 x2 -1 x10 = +0
 con11: +1 x1 -1 x3 -1 x11 = +0
 con12: +1 x1 -1 x4 -1 x12 = +0
 con13: +1 x1 -1 x5 -1 x13 = +0
 con14: +1 x1 -1 x6 -1 x14 = +0
 con15: +1 x1 -1 x7 -1 x15 = +0
 con16: +1 x1 -1 x8 -1 x16 = +0
 con17: +1 x1 -1 x9 -1 x17 = +0
bounds
 +0 <= x1 <= +1
 +0 <= x2 <= +1
 +0 <= x3 <= +1
 +0 <= x4 <= +1
 +0 <= x5 <= +1
 +0 <= x6 <= +1
 +0 <= x7 <= +1
 +0 <= x8 <= +1
 +0 <= x9 <= +1
 x10 free
 x11 free
 x12 free
 x13 free
 x14 free
 x15 free
 x16 free
 x17 free
binary
general
semi
end
